c Random generated cnf formula, satisfiable: true
p cnf 10 50
-10 8 -2 0
7 -1 -3 0
7 10 9 0
10 1 -8 0
8 -3 -5 0
1 -8 2 0
4 5 -7 0
6 3 -2 0
-2 7 -8 0
5 7 10 0
7 6 -2 0
-5 -1 -4 0
-1 3 6 0
10 -8 -4 0
10 -9 3 0
-10 1 6 0
-1 -3 7 0
-5 1 10 0
-7 -9 -8 0
-1 2 -5 0
4 1 10 0
-10 8 -2 0
2 6 -7 0
-7 1 -5 0
2 -5 9 0
-10 -3 -1 0
4 -2 -6 0
8 10 1 0
3 -5 8 0
6 -10 -1 0
-10 -4 3 0
5 3 9 0
6 1 -5 0
1 -4 10 0
-8 10 -5 0
10 -7 3 0
-10 -7 -9 0
-2 5 -8 0
5 7 8 0
-6 -3 -7 0
9 2 1 0
6 4 -3 0
-9 -1 -6 0
8 1 -3 0
-1 -9 -4 0
9 7 2 0
4 6 -9 0
-9 2 4 0
5 4 -7 0
2 3 -7 0
